NAME: Kreis
TYPE: TSP
COMMENT: 
DIMENSION: 19
EDGE_WEIGHT_TYPE: EUC_2D
NODE_COORD_SECTION
1 63.0 59.0
2 62.0 119.0
3 63.0 143.0
4 74.0 180.0
5 107.0 222.0
6 168.0 260.0
7 213.0 266.0
8 276.0 273.0
9 297.0 253.0
10 332.0 183.0
11 331.0 143.0
12 313.0 84.0
13 284.0 51.0
14 234.0 20.0
15 182.0 10.0
16 143.0 10.0
17 108.0 17.0
18 91.0 28.0
19 59.0 82.0
EOF